SCIP Status        : solving was interrupted [time limit reached]
Total Time         :    3600.00
  solving          :    3600.00
  presolving       :       0.19 (included in solving)
  reading          :       0.00
  copying          :       0.40 (35 #copies) (minimal 0.00, maximal 0.02, average 0.01)
Original Problem   :
  Problem name     : bbbenchmark/g05_60.7.cut
  Variables        : 61 (60 binary, 0 integer, 0 implicit integer, 1 continuous)
  Constraints      : 1 initial, 1 maximal
  Objective        : minimize, 1 non-zeros (abs.min = 1, abs.max = 1)
Presolved Problem  :
  Problem name     : t_bbbenchmark/g05_60.7.cut
  Variables        : 946 (60 binary, 0 integer, 885 implicit integer, 1 continuous)
  Constraints      : 886 initial, 5647 maximal
  Objective        : minimize, 1 non-zeros (abs.min = 1, abs.max = 1)
  Nonzeros         : 3601 constraint, 122 clique table
Presolvers         :   ExecTime  SetupTime  Calls  FixedVars   AggrVars   ChgTypes  ChgBounds   AddHoles    DelCons    AddCons   ChgSides   ChgCoefs
  boundshift       :       0.00       0.00      0          0          0          0          0          0          0          0          0          0
  convertinttobin  :       0.00       0.00      0          0          0          0          0          0          0          0          0          0
  domcol           :       0.00       0.00      1          0          0          0          0          0          0          0          0          0
  dualagg          :       0.00       0.00      0          0          0          0          0          0          0          0          0          0
  dualcomp         :       0.00       0.00      1          0          0          0          0          0          0          0          0          0
  dualinfer        :       0.00       0.00      0          0          0          0          0          0          0          0          0          0
  dualsparsify     :       0.00       0.00      1          0          0          0          0          0          0          0          0          0
  gateextraction   :       0.00       0.00      0          0          0          0          0          0          0          0          0          0
  implics          :       0.00       0.00      2          0          0          0          0          0          0          0          0          0
  inttobinary      :       0.00       0.00      0          0          0          0          0          0          0          0          0          0
  qpkktref         :       0.00       0.00      0          0          0          0          0          0          0          0          0          0
  redvub           :       0.00       0.00      0          0          0          0          0          0          0          0          0          0
  sparsify         :       0.00       0.00      1          0          0          0          0          0          0          0          0          0
  stuffing         :       0.00       0.00      0          0          0          0          0          0          0          0          0          0
  trivial          :       0.00       0.00      4          0          0          0          0          0          0          0          0          0
  tworowbnd        :       0.00       0.00      0          0          0          0          0          0          0          0          0          0
  dualfix          :       0.00       0.00      4          0          0          0          0          0          0          0          0          0
  genvbounds       :       0.00       0.00      0          0          0          0          0          0          0          0          0          0
  probing          :       0.08       0.00      1          0          0          0          0          0          0          0          0          0
  pseudoobj        :       0.00       0.00      1          0          0          0          1          0          0          0          0          0
  symmetry         :       0.00       0.00      0          0          0          0          0          0          0          0          0          0
  vbounds          :       0.00       0.00      1          0          0          0          0          0          0          0          0          0
  and              :       0.00       0.00      2          0          0          0          0          0          0          0          0          0
  linear           :       0.00       0.00      2          0          0          0          0          0          0          0          0          0
  logicor          :       0.00       0.00      0          0          0          0          0          0          0          0          0          0
  nonlinear        :       0.11       0.00      5          0          0          0          1          0          0        885          0          0
  benders          :       0.00       0.00      0          0          0          0          0          0          0          0          0          0
  components       :       0.00       0.00      1          0          0          0          0          0          0          0          0          0
  root node        :          -          -      -          0          -          -         54          -          -          -          -          -
Constraints        :     Number  MaxNumber  #Separate #Propagate    #EnfoLP    #EnfoRelax  #EnfoPS    #Check   #ResProp    Cutoffs    DomReds       Cuts    Applied      Conss   Children
  benderslp        :          0          0          0          0     111457          0          0       6988          0          0          0          0          0          0          0
  integral         :          0          0          0          0     111457          0          0       6988          0          1      17298          0          0       7282     213960
  and              :        885        885     120514     690733         19          0          0         32     112140         88    4549799       2115       1928          0          0
  linear           :          1+         5        129     690645         19          0          0         30          1          0          1          0          0          0          0
  logicor          :          0+      4761          0     181538          0          0          0          0       2145        994        318          0          0          0          0
  benders          :          0          0          0          0         19          0          0         33          0          0          0          0          0          0          0
  countsols        :          0          0          0          0         19          0          0         33          0          0          0          0          0          0          0
  components       :          0          0          0          0          0          0          0          0          0          0          0          0          0          0          0
Constraint Timings :  TotalTime  SetupTime   Separate  Propagate     EnfoLP     EnfoPS     EnfoRelax   Check    ResProp    SB-Prop
  benderslp        :       0.09       0.00       0.00       0.00       0.09       0.00       0.00       0.00       0.00       0.00
  integral         :      56.84       0.00       0.00       0.00      56.82       0.00       0.00       0.02       0.00       0.00
  and              :      50.97       0.00      31.01      19.11       0.00       0.00       0.00       0.00       0.17       0.68
  linear           :       0.52       0.00       0.03       0.49       0.00       0.00       0.00       0.00       0.00       0.00
  logicor          :       6.56       0.00       0.00       6.50       0.00       0.00       0.00       0.00       0.00       0.06
  benders          :       0.00       0.00       0.00       0.00       0.00       0.00       0.00       0.00       0.00       0.00
  countsols        :       0.00       0.00       0.00       0.00       0.00       0.00       0.00       0.00       0.00       0.00
  components       :       0.13       0.00       0.00       0.12       0.00       0.00       0.00       0.00       0.00       0.01
Propagators        : #Propagate   #ResProp    Cutoffs    DomReds
  dualfix          :          4          0          0          0
  genvbounds       :          0          0          0          0
  nlobbt           :          0          0          0          0
  obbt             :          0          0          0          0
  probing          :          0          0          0          0
  pseudoobj        :     607203          0          0         55
  redcost          :     269601          0          0     872799
  rootredcost      :         33          0          0          0
  symmetry         :          0          0          0          0
  vbounds          :      62386          0          0          0
Propagator Timings :  TotalTime  SetupTime   Presolve  Propagate    ResProp    SB-Prop
  dualfix          :       0.00       0.00       0.00       0.00       0.00       0.00
  genvbounds       :       0.32       0.00       0.00       0.31       0.00       0.01
  nlobbt           :       0.00       0.00       0.00       0.00       0.00       0.00
  obbt             :       0.00       0.00       0.00       0.00       0.00       0.00
  probing          :       0.08       0.00       0.08       0.00       0.00       0.00
  pseudoobj        :       0.53       0.00       0.00       0.52       0.00       0.01
  redcost          :       7.72       0.00       0.00       7.71       0.00       0.01
  rootredcost      :       0.53       0.00       0.00       0.52       0.00       0.01
  symmetry         :       0.30       0.00       0.00       0.30       0.00       0.00
  vbounds          :       0.35       0.00       0.00       0.34       0.00       0.01
Conflict Analysis  :       Time      Calls    Success    DomReds  Conflicts   Literals    Reconvs ReconvLits   Dualrays   Nonzeros   LP Iters   (pool size: [10000,10000])
  propagation      :       0.00       1082        638          -        737       24.8          0        0.0          -          -          -
  infeasible LP    :       0.00          0          0          -          0        0.0          0        0.0          4       24.8          0
  bound exceed. LP :      13.00      14834      10895          -      53927       30.3         20       21.9          0        0.0      75029
  strong branching :       0.00          0          0          -          0        0.0          0        0.0          -          -          0
  pseudo solution  :       0.00          0          0          -          0        0.0          0        0.0          -          -          -
  applied globally :       0.10          -          -          0      22970       30.0          -          -          4          -          -
  applied locally  :          -          -          -          0          0        0.0          -          -          0          -          -
Separators         :   ExecTime  SetupTime      Calls  RootCalls    Cutoffs    DomReds  FoundCuts ViaPoolAdd  DirectAdd    Applied ViaPoolApp  DirectApp      Conss
  cut pool         :       1.57          -      15053        163          -          -      21209     383412          -          -          -          -          -    (maximal pool size:       1272)
  aggregation      :      22.07       0.00       4278        129          0          0         21          6          0          6          6          0          0
  > cmir           :          -          -          -          -          -          -          -          6          0          6          6          0          -
  > flowcover      :          -          -          -          -          -          -          -          0          0          0          0          0          -
  > knapsackcover  :          -          -          -          -          -          -          -          0          0          0          0          0          -
  cgmip            :       0.00       0.00          0          0          0          0          0          0          0          0          0          0          0
  clique           :       0.00       0.00        129        129          0          0          0          0          0          0          0          0          0
  closecuts        :       0.00       0.00          0          0          0          0          0          0          0          0          0          0          0
  convexproj       :       0.00       0.00          0          0          0          0          0          0          0          0          0          0          0
  disjunctive      :       0.00       0.00          0          0          0          0          0          0          0          0          0          0          0
  eccuts           :       0.00       0.00          0          0          0          0          0          0          0          0          0          0          0
  gauge            :       0.00       0.00          0          0          0          0          0          0          0          0          0          0          0
  gomory           :       0.00       0.00          0          0          0          0          0          0          0          0          0          0          0
  > gomorymi       :          -          -          -          -          -          -          -          0          0          0          0          0          -
  > strongcg       :          -          -          -          -          -          -          -          0          0          0          0          0          -
  impliedbounds    :       0.09       0.00       4278        129          0          0          4          0          0          0          0          0          0
  interlattice     :       0.17       0.00         87         87          0          0         87          0         87         86          0         86          0
  interminor       :       0.00       0.00          0          0          0          0          0          0          0          0          0          0          0
  intersub         :       0.00       0.00          2          2          0          0          2          0          2          2          0          2          0
  intobj           :       0.00       0.00          0          0          0          0          0          0          0          0          0          0          0
  mcf              :       0.00       0.00          1          1          0          0          0          0          0          0          0          0          0
  minor            :       0.01       0.00          0          0          0          0          0          0          0          0          0          0          0
  mixing           :       0.01       0.00       4278        129          0          0          0          0          0          0          0          0          0
  oddcycle         :       0.00       0.00          0          0          0          0          0          0          0          0          0          0          0
  rapidlearning    :       0.00       0.00          0          0          0          0          0          0          0          0          0          0          0
  rlt              :       0.00       0.00         10         10          0          0          0          0          0          0          0          0          0
  zerohalf         :      12.96       0.00       3509         20          0          0      21184     383406          0      63499      63499          0          0
Cutselectors       :   ExecTime  SetupTime      Calls  RootCalls   Selected     Forced   Filtered  RootSelec   RootForc   RootFilt 
  hybrid           :       0.17       0.00       9861        132      65521          0     320095        275          0         29
Pricers            :   ExecTime  SetupTime      Calls       Vars
  problem variables:       0.00          -          0          0
Branching Rules    :   ExecTime  SetupTime   BranchLP  BranchExt   BranchPS    Cutoffs    DomReds       Cuts      Conss   Children
  allfullstrong    :       0.00       0.00          0          0          0          0          0          0          0          0
  cloud            :       0.00       0.00          0          0          0          0          0          0          0          0
  distribution     :       0.00       0.00          0          0          0          0          0          0          0          0
  fullstrong       :       0.00       0.00          0          0          0          0          0          0          0          0
  inference        :       0.00       0.00          0          0          0          0          0          0          0          0
  leastinf         :       0.00       0.00          0          0          0          0          0          0          0          0
  lookahead        :       0.00       0.00          0          0          0          0          0          0          0          0
  mostinf          :       0.00       0.00          0          0          0          0          0          0          0          0
  multaggr         :       0.00       0.00          0          0          0          0          0          0          0          0
  nodereopt        :       0.00       0.00          0          0          0          0          0          0          0          0
  pscost           :       0.00       0.00          0          0          0          0          0          0          0          0
  random           :       0.00       0.00          0          0          0          0          0          0          0          0
  relpscost        :      56.61       0.00     111438          0          0          1      17298          0       7314     213960
  vanillafullstrong:       0.00       0.00          0          0          0          0          0          0          0          0
Primal Heuristics  :   ExecTime  SetupTime      Calls      Found       Best
  LP solutions     :       0.01          -          -         19         19
  relax solutions  :       0.00          -          -          0          0
  pseudo solutions :       0.00          -          -          0          0
  strong branching :       0.01          -          -          7          7
  actconsdiving    :       0.00       0.00          0          0          0
  adaptivediving   :       2.28       0.00        141          0          0
  alns             :       1.40       0.00         26          2          2
  bound            :       0.00       0.00          0          0          0
  clique           :       0.01       0.00          1          0          0
  coefdiving       :       0.00       0.00          0          0          0
  completesol      :       0.00       0.00          0          0          0
  conflictdiving   :       5.54       0.00        396          0          0
  crossover        :       0.00       0.00          0          0          0
  dins             :       0.00       0.00          0          0          0
  distributiondivin:      16.57       0.00        397          0          0
  dps              :       0.00       0.00          0          0          0
  dualval          :       0.00       0.00          0          0          0
  farkasdiving     :       0.00       0.00          0          0          0
  feaspump         :       0.02       0.00          0          0          0
  fixandinfer      :       0.00       0.00          0          0          0
  fracdiving       :       7.68       0.00        397          0          0
  gins             :       0.03       0.00          0          0          0
  guideddiving     :       7.29       0.00        397          1          1
  indicator        :       0.05       0.00          0          0          0
  indicatordiving  :       0.00       0.00          0          0          0
  intdiving        :       0.00       0.00          0          0          0
  intshifting      :       0.03       0.00          9          0          0
  linesearchdiving :       7.47       0.00        397          0          0
  localbranching   :       0.00       0.00          0          0          0
  locks            :       0.00       0.00          1          0          0
  lpface           :       0.18       0.00          0          0          0
  mpec             :       0.86       0.00          1          0          0
  multistart       :       0.00       0.00          0          0          0
  mutation         :       0.00       0.00          0          0          0
  nlpdiving        :       2.73       0.00          8          0          0
  objpscostdiving  :      12.69       0.00         64          4          3
  octane           :       0.00       0.00          0          0          0
  ofins            :       0.10       0.00          0          0          0
  oneopt           :       0.12       0.00         40          0          0
  padm             :       0.00       0.00          0          0          0
  proximity        :       0.00       0.00          0          0          0
  pscostdiving     :       8.20       0.00        396          2          2
  randrounding     :       0.29       0.00       6951          0          0
  rens             :       0.00       0.00          0          0          0
  reoptsols        :       0.00       0.00          0          0          0
  repair           :       0.00       0.00          0          0          0
  rins             :       2.74       0.00         11          1          1
  rootsoldiving    :       4.86       0.00         24          0          0
  rounding         :       0.53       0.00       4811          0          0
  shiftandpropagate:       0.00       0.00          0          0          0
  shifting         :      11.79       0.00       8947         10          6
  simplerounding   :       0.16       0.00          0          0          0
  subnlp           :      68.85       0.00          0          0          0
  trivial          :       0.00       0.00          2          2          2
  trivialnegation  :       0.00       0.00          0          0          0
  trustregion      :       0.00       0.00          0          0          0
  trysol           :       0.22       0.00          0          0          0
  twoopt           :       0.00       0.00          0          0          0
  undercover       :       0.63       0.00          1          1          1
  vbounds          :       0.00       0.00          0          0          0
  veclendiving     :       4.21       0.00        396          0          0
  zeroobj          :       0.00       0.00          0          0          0
  zirounding       :       0.25       0.00       1000          0          0
  other solutions  :          -          -          -          0          -
Diving (single)    :      Calls      Nodes   LP Iters Backtracks  Conflicts   MinDepth   MaxDepth   AvgDepth  RoundSols  NLeafSols  MinSolDpt  MaxSolDpt  AvgSolDpt
  actconsdiving    :          0          -          -          -          -          -          -          -          -          -          -          -          -
  coefdiving       :          0          -          -          -          -          -          -          -          -          -          -          -          -
  conflictdiving   :        396       6705      62426        441       5409         18         45       31.1          0          -          -          -          -
  distributiondivin:        397       4743     141948        620       4306         20         38       25.4          0          -          -          -          -
  farkasdiving     :          0          -          -          -          -          -          -          -          -          -          -          -          -
  fracdiving       :        397      41633     104998        295       1805         27        251      119.2          0          -          -          -          -
  guideddiving     :        397      37228     104019        278       2006         30        197      108.1          0          1         62         62       62.0
  indicatordiving  :          0          -          -          -          -          -          -          -          -          -          -          -          -
  linesearchdiving :        397       9832     106184        484       6831         23         54       38.5          0          -          -          -          -
  pscostdiving     :        396       6485     129069        404       5654         22         43       30.3          0          2         37         43       40.0
  veclendiving     :        396       7229      39532        406       5927         19         44       32.3          0          -          -          -          -
Diving (adaptive)  :      Calls      Nodes   LP Iters Backtracks  Conflicts   MinDepth   MaxDepth   AvgDepth  RoundSols  NLeafSols  MinSolDpt  MaxSolDpt  AvgSolDpt
  actconsdiving    :         20        232       6393         41        229         22         32       24.6          0          -          -          -          -
  coefdiving       :         40        694       5228         41        583         22         39       31.1          0          -          -          -          -
  conflictdiving   :          0          -          -          -          -          -          -          -          -          -          -          -          -
  distributiondivin:          0          -          -          -          -          -          -          -          -          -          -          -          -
  farkasdiving     :          0          -          -          -          -          -          -          -          -          -          -          -          -
  fracdiving       :         10       1035       1671          6         29         52        158      118.9          0          -          -          -          -
  guideddiving     :         13       1527       3780         10         76         51        164      131.5          0          -          -          -          -
  indicatordiving  :          0          -          -          -          -          -          -          -          -          -          -          -          -
  linesearchdiving :         19        445       3764         21        261         26         47       38.1          0          -          -          -          -
  pscostdiving     :         18        255       5313         19        219         23         36       28.4          0          -          -          -          -
  veclendiving     :         21        347       1428         25        237         21         38       31.0          0          -          -          -          -
Neighborhoods      :      Calls  SetupTime  SolveTime SolveNodes       Sols       Best       Exp3  EpsGreedy        UCB TgtFixRate  Opt  Inf Node Stal  Sol  Usr Othr Actv
  rens             :          2       0.01       0.00          0          0          0    0.00000   -1.00000    0.30135      0.700    0    1    0    0    0    0    1    1
  rins             :          2       0.02       0.01          0          0          0    0.00000   -1.00000    0.30135      0.700    0    1    0    0    0    0    1    1
  mutation         :          6       0.12       0.11        123          2          2    0.00000   -1.00000    0.50713      0.562    1    3    0    2    0    0    0    1
  localbranching   :          3       0.06       0.06         62          0          0    0.00000   -1.00000    0.46155      0.662    0    2    0    1    0    0    0    1
  crossover        :          5       0.07       0.45         79          0          0    0.00000   -1.00000    0.45561      0.416    0    4    0    1    0    0    0    1
  proximity        :          3       0.05       0.21         67          0          0    0.00000   -1.00000    0.45911      0.662    0    2    0    1    0    0    0    1
  zeroobjective    :          3       0.04       0.09         67          0          0    0.00000   -1.00000    0.45037      0.662    0    2    0    1    0    0    0    1
  dins             :          2       0.01       0.00          1          0          0    0.00000   -1.00000    0.30085      0.700    0    1    0    0    0    0    1    1
  trustregion      :          0       0.00       0.00          0          0          0    0.00000   -1.00000    1.00000      0.900    0    0    0    0    0    0    0    0
Expressions        :   #IntEval  IntEvalTi   #RevProp  RevPropTi    DomReds    Cutoffs  #Estimate  EstimTime  Branching  #Simplify SimplifyTi Simplified
  pow              :          0       0.00          0       0.00          0          0          0       0.00          0          0       0.00          0
  prod             :       3540       0.00          0       0.00          0          0          0       0.00          0       2655       0.00          0
  sum              :          8       0.00          2       0.00          0          0          0       0.00          0          3       0.01          2
  var              :       3327       0.00          0       0.00          0          0          0       0.00          0       6378       0.02          0
  varidx           :          0       0.00          0       0.00          0          0          0       0.00          0          0       0.00          0
LP                 :       Time      Calls Iterations  Iter/call   Iter/sec  Time-0-It Calls-0-It    ItLimit
  primal LP        :     159.92      22767          0       0.00       0.00     159.82      22767
  dual LP          :    2985.68     262472   36871270     163.43   12349.37       8.71      36863
  lex dual LP      :       0.00          0          0       0.00          -
  barrier LP       :       0.00          0          0       0.00          -       0.00          0
  resolve instable :       0.00          0          0       0.00          -
  diving/probing LP:      55.53       8705     940624     108.06   16939.02
  strong branching :      31.92       7770     594591      76.52   18627.54          -          -        148
    (at root node) :          -         19       4744     249.68          -
  conflict analysis:       6.80       7553      75029       9.93   11033.68
NLP relaxation     :
  solve time       :       2.71 (8 calls)
  convexity        :  nonconvex (1 linear rows, 0 convex ineq., 0 nonconvex ineq., 885 nonlinear eq. or two-sided ineq.)
NLP Solvers        :  #Problems  ProblemTi    #Solves  SolveTime      #Iter  Time/Iter      #Okay #TimeLimit #IterLimit #LObjLimit #Interrupt  #NumError #EvalError  #OutOfMem #LicenseEr #OtherTerm   #GlobOpt    #LocOpt  #Feasible #LocInfeas #GlobInfea #Unbounded   #Unknown
  ipopt            :          2       5.91         11       3.62        335       0.01         11          0          0          0          0          0          0          0          0          0          0          0          0          3          0          0          8
B&B Tree           :
  number of runs   :          1
  nodes            :     211562 (106980 internal, 104582 leaves)
  feasible leaves  :         19
  infeas. leaves   :        270
  objective leaves :     104292
  nodes (total)    :     211562 (106980 internal, 104582 leaves)
  nodes left       :       2327
  max depth        :         33
  max depth (total):         33
  backtracks       :      57911 (27.4%)
  early backtracks :          0 (0.0%)
  nodes exc. ref.  :          0 (0.0%)
  delayed cutoffs  :         18
  repropagations   :       5919 (1223 domain reductions, 2 cutoffs)
  avg switch length:       4.67
  switching time   :     189.11
Estim. Tree Size   :     286901
Estimation Tree    : 213961 nodes (211634 visited, 106980 internal, 104654 leaves, 2327 open), weight: 0.6944 completed 0.8035
Estimations        :      estim      value      trend resolution     smooth
  wbe              :     301405          -          -          -          -
  tree-profile     :         -1          -          -          -          -
  gap              :     668767    0.94663    0.00003        128     664124
  tree-weight      :     286902    0.69444    0.00101        128     287095
  leaf-frequency   :     343003    0.49450    0.00001        128     342500
  ssg              :     294844    0.13332   -0.00040        128     295186
  open-nodes       :     288254 2327.00000   -7.53084        128     287974
Root Node          :
  First LP value   : -1.00000000000000e+00
  First LP Iters   :        610 (30500.00 Iter/sec)
  First LP Time    :       0.02
  Final Dual Bound : -8.86354243168984e-01
  Final Root Iters :       2934
  Root LP Estimate : -5.46877660383829e-01
Solution           :
  Solutions found  :         49 (44 improvements)
  First Solution   : +1.00000000000000e+05   (in run 1, after 0 nodes, 0.00 seconds, depth 0, found by <trivial>)
  Gap First Sol.   :   infinite
  Gap Last Sol.    :      16.15 %
  Primal Bound     : -6.04519774011300e-01   (in run 1, after 46846 nodes, 654.28 seconds, depth 22, found by <relaxation>)
  Dual Bound       : -6.38603473326577e-01
  Gap              :       5.64 %
Integrals          :      Total       Avg%
  primal-dual      :   35906.05       9.97
  primal-ref       :          -          - (not evaluated)
  dual-ref         :          -          - (not evaluated)
